100
1000
200
200
199
199
199
199
198
198
198
196
196
195
194
193
193
193
193
193
193
192
192
192
190
189
189
189
188
185
185
185
184
184
184
184
183
183
183
182
181
181
180
180
180
179
178
178
178
177
177
177
176
176
176
176
176
175
175
174
172
171
171
171
169
168
168
167
167
167
166
166
165
165
165
164
164
164
163
163
162
162
162
161
160
160
159
158
158
158
157
157
156
155
155
155
155
153
152
151
151
150
